c WARNING: for repeatability, setting FPU to use double precision
d VARIABLES            202236       
d CONSTRAINTS          919410       
c ============================[ Problem Statistics ]=============================
c |                                                                             |
c |  Number of variables:        202236                                         |
c |  Number of clauses:          919410                                         |
c |  Parse time:                   0.16 s                                       |
c |                                                                             |
c ============================[ Search Statistics ]==============================
c | Conflicts |          ORIGINAL         |          LEARNT          | Progress |
c |           |    Vars  Clauses Literals |    Limit  Clauses Lit/Cl |          |
c ===============================================================================
c |       100 |  177061   847530  2049122 |   310761      100     18 | 12.448 % |
c |       250 |  177061   847530  2049122 |   341837      250     31 | 12.448 % |
c |       475 |  177061   847530  2049122 |   376020      475     78 | 12.448 % |
c |       812 |  177061   847530  2049122 |   413622      812     89 | 12.448 % |
c |      1318 |  177061   847530  2049122 |   454985     1318     96 | 12.448 % |
c |      2077 |  177061   847530  2049122 |   500483     2077     97 | 12.448 % |
c |      3216 |  177061   847530  2049122 |   550532     3216     97 | 12.448 % |
c |      4924 |  177061   847530  2049122 |   605585     4924    106 | 12.448 % |
c |      7486 |  177061   847530  2049122 |   666143     7486    134 | 12.448 % |
c |     11330 |  177061   847530  2049122 |   732758    11330    143 | 12.448 % |
c |     17096 |  177061   847530  2049122 |   806034    17096    149 | 12.448 % |
c |     25745 |  177061   847530  2049122 |   886637    25745    184 | 12.448 % |
c |     38719 |  177061   847530  2049122 |   975301    38719    200 | 12.448 % |
c |     58180 |  177061   847530  2049122 |  1072831    58180    188 | 12.448 % |
c |     87372 |  177061   847530  2049122 |  1180114    87372    182 | 12.448 % |
c |    131161 |  177061   847530  2049122 |  1298125   131161    174 | 12.448 % |
c |    196845 |  177061   847530  2049122 |  1427938   196845    172 | 12.448 % |
c |    295371 |  177061   847530  2049122 |  1570732   295371    188 | 12.448 % |
c |    443160 |  177061   847530  2049122 |  1727805   443160    176 | 12.448 % |
c |    664843 |  177061   847530  2049122 |  1900586   664843    193 | 12.448 % |
c |    997368 |  177061   847530  2049122 |  2090644   997368    192 | 12.448 % |
c |   1496156 |  177061   847530  2049122 |  2299709  1496156    188 | 12.448 % |
c ===============================================================================
c restarts              : 3802
c conflicts             : 1944462        (1085 /sec)
c decisions             : 5104388        (0.00 % random) (2849 /sec)
c propagations          : 2721627662     (1519210 /sec)
c conflict literals     : 363004386      (40.70 % deleted)
d RESTARTS             3802
d FAILURES             1944462      
d NODES                5104388      
d BACKTRACKS           5104388      
d PROPAGATIONS         2721627662   
d NOGOODSIZE           186.69 
d MEMORY               1647.00 
d TIME                 1791.48 

s UNKNOWN
